DIMACS2
80 417 267 129 290 265 268 130 552 518 315 156 635 277 243 332 173 308 67 430 560 504 450 143 448 443 122 2 619 158 237 386 197 420 480 593 544 638 477 547 515 369 339 121 91 104 146 27 554 531 426 610 573 415 572 295 220 372 616 16 231 285 404 545 51 120 76 478 521 438 460 26 355 269 43 190 601 451 155 134 328
p edge 640 2636
e 0 550 1.0
e 0 195 1.0
e 0 531 12.0
e 0 459 1.0
e 1 589 1.0
e 1 95 1.0
e 1 286 1.0
e 1 150 2.0
e 2 116 15.0
e 2 309 33.0
e 2 609 15.0
e 2 618 11.0
e 2 601 26.0
e 2 197 16.0
e 2 173 27.0
e 3 541 1.0
e 3 129 13.0
e 3 462 1.0
e 3 306 1.0
e 4 307 1.0
e 4 312 1.0
e 4 207 1.0
e 4 229 1.0
e 5 297 2.0
e 5 450 37.0
e 5 261 2.0
e 5 58 1.0
e 6 179 1.0
e 6 328 46.0
e 6 18 2.0
e 6 609 1.0
e 7 507 1.0
e 7 595 1.0
e 7 20 1.0
e 7 123 2.0
e 8 371 1.0
e 8 308 1.0
e 8 28 2.0
e 8 251 1.0
e 9 465 2.0
e 9 147 2.0
e 9 609 2.0
e 9 402 1.0
e 10 483 1.0
e 10 35 1.0
e 10 441 1.0
e 10 90 1.0
e 11 371 1.0
e 11 126 1.0
e 11 333 1.0
e 11 212 1.0
e 12 73 1.0
e 12 578 1.0
e 12 266 1.0
e 12 340 1.0
e 13 552 21.0
e 13 252 1.0
e 13 343 1.0
e 13 550 1.0
e 14 323 1.0
e 14 350 1.0
e 14 215 1.0
e 14 604 1.0
e 15 476 1.0
e 15 134 42.0
e 15 37 1.0
e 15 537 1.0
e 16 215 31.0
e 16 611 21.0
e 16 563 40.0
e 16 231 15.0
e 17 569 1.0
e 17 485 1.0
e 17 597 1.0
e 17 421 1.0
e 18 495 1.0
e 18 427 1.0
e 18 117 1.0
e 18 83 2.0
e 19 350 1.0
e 19 456 1.0
e 19 346 1.0
e 19 506 1.0
e 20 29 1.0
e 20 342 1.0
e 20 633 1.0
e 20 538 1.0
e 21 113 1.0
e 21 544 33.0
e 21 619 15.0
e 21 363 1.0
e 22 54 1.0
e 22 505 1.0
e 22 172 1.0
e 22 167 1.0
e 23 562 1.0
e 23 6 2.0
e 23 203 1.0
e 23 578 1.0
e 24 119 1.0
e 24 360 1.0
e 24 430 29.0
e 24 152 1.0
e 25 544 16.0
e 25 507 1.0
e 25 159 1.0
e 25 307 2.0
e 26 21 9.0
e 26 348 19.0
e 26 236 44.0
e 26 208 26.0
e 26 290 9.0
e 27 572 39.0
e 27 535 33.0
e 27 324 36.0
e 27 524 45.0
e 27 573 33.0
e 27 544 25.0
e 28 533 1.0
e 28 361 1.0
e 28 83 1.0
e 28 603 2.0
e 29 22 2.0
e 29 221 2.0
e 29 33 1.0
e 29 323 1.0
e 30 386 32.0
e 30 17 3.0
e 30 175 2.0
e 30 257 2.0
e 31 172 1.0
e 31 570 1.0
e 31 94 2.0
e 31 533 1.0
e 32 389 3.0
e 32 608 1.0
e 32 403 1.0
e 32 570 1.0
e 33 268 8.0
e 33 225 1.0
e 33 5 1.0
e 33 71 1.0
e 34 170 1.0
e 34 288 2.0
e 34 270 1.0
e 34 352 2.0
e 35 17 2.0
e 35 405 1.0
e 35 586 1.0
e 35 515 22.0
e 36 414 1.0
e 36 392 2.0
e 36 339 21.0
e 36 132 2.0
e 37 233 1.0
e 37 291 1.0
e 37 198 1.0
e 37 446 1.0
e 38 30 1.0
e 38 59 1.0
e 38 119 1.0
e 38 314 2.0
e 39 519 1.0
e 39 556 1.0
e 39 298 1.0
e 39 388 1.0
e 40 229 1.0
e 40 100 1.0
e 40 571 1.0
e 40 203 1.0
e 41 277 2.0
e 41 504 6.0
e 41 603 2.0
e 41 168 1.0
e 42 561 2.0
e 42 382 2.0
e 42 528 1.0
e 42 156 21.0
e 43 557 12.0
e 43 580 44.0
e 43 352 13.0
e 43 541 10.0
e 43 308 25.0
e 44 577 1.0
e 44 323 1.0
e 44 58 1.0
e 44 396 2.0
e 45 564 1.0
e 45 496 1.0
e 45 254 2.0
e 45 203 1.0
e 46 342 1.0
e 46 415 19.0
e 46 59 1.0
e 46 381 1.0
e 47 92 1.0
e 47 118 1.0
e 47 180 1.0
e 47 256 1.0
e 48 241 1.0
e 48 413 1.0
e 48 95 1.0
e 48 501 2.0
e 49 542 1.0
e 49 31 1.0
e 49 393 1.0
e 49 445 1.0
e 50 215 1.0
e 50 322 1.0
e 50 65 2.0
e 50 352 1.0
e 51 502 17.0
e 51 398 11.0
e 51 189 21.0
e 51 468 35.0
e 52 592 1.0
e 52 244 1.0
e 52 327 1.0
e 52 324 1.0
e 53 11 1.0
e 53 38 2.0
e 53 137 1.0
e 53 384 1.0
e 54 116 2.0
e 54 325 1.0
e 54 94 2.0
e 54 414 1.0
e 55 29 1.0
e 55 285 21.0
e 55 147 1.0
e 55 629 1.0
e 56 374 1.0
e 56 361 1.0
e 56 186 1.0
e 56 227 1.0
e 57 358 2.0
e 57 407 2.0
e 57 305 1.0
e 57 34 1.0
e 58 355 40.0
e 58 547 7.0
e 58 322 1.0
e 58 1 1.0
e 59 531 11.0
e 59 543 1.0
e 59 228 1.0
e 59 518 26.0
e 60 255 1.0
e 60 366 1.0
e 60 140 1.0
e 60 327 1.0
e 61 341 1.0
e 61 524 2.0
e 61 535 1.0
e 61 73 1.0
e 62 496 1.0
e 62 330 1.0
e 62 41 1.0
e 62 614 1.0
e 63 317 2.0
e 63 96 3.0
e 63 579 1.0
e 63 154 1.0
e 64 565 1.0
e 64 290 37.0
e 64 341 1.0
e 64 424 1.0
e 65 48 1.0
e 65 123 2.0
e 65 39 1.0
e 65 307 2.0
e 66 338 1.0
e 66 400 1.0
e 66 514 1.0
e 66 240 1.0
e 67 73 24.0
e 67 495 18.0
e 67 401 15.0
e 67 612 36.0
e 68 617 1.0
e 68 156 21.0
e 68 559 2.0
e 68 58 1.0
e 69 33 1.0
e 69 595 1.0
e 69 111 1.0
e 69 603 2.0
e 70 278 1.0
e 70 443 12.0
e 70 79 1.0
e 70 51 18.0
e 71 436 1.0
e 71 548 2.0
e 71 620 1.0
e 71 535 1.0
e 72 565 1.0
e 72 200 2.0
e 72 436 1.0
e 72 140 2.0
e 73 402 1.0
e 73 223 1.0
e 73 10 2.0
e 73 393 2.0
e 74 593 11.0
e 74 18 1.0
e 74 288 1.0
e 74 566 2.0
e 75 507 1.0
e 75 528 1.0
e 75 377 1.0
e 75 191 1.0
e 76 572 43.0
e 76 417 27.0
e 76 586 11.0
e 76 355 34.0
e 77 351 1.0
e 77 78 1.0
e 77 206 1.0
e 77 528 1.0
e 78 421 2.0
e 78 47 1.0
e 78 456 2.0
e 78 331 1.0
e 79 42 1.0
e 79 379 2.0
e 79 556 1.0
e 79 291 1.0
e 80 362 2.0
e 80 634 1.0
e 80 369 39.0
e 80 160 1.0
e 81 563 1.0
e 81 213 1.0
e 81 172 1.0
e 81 35 1.0
e 82 254 1.0
e 82 560 13.0
e 82 625 1.0
e 82 160 1.0
e 83 376 1.0
e 83 552 27.0
e 83 248 1.0
e 83 387 1.0
e 84 591 3.0
e 84 208 1.0
e 84 77 2.0
e 84 231 35.0
e 85 200 2.0
e 85 109 1.0
e 85 480 2.0
e 85 484 2.0
e 86 138 1.0
e 86 518 11.0
e 86 243 42.0
e 86 55 1.0
e 87 434 1.0
e 87 129 38.0
e 87 230 1.0
e 87 570 1.0
e 88 611 1.0
e 88 319 1.0
e 88 359 1.0
e 88 412 2.0
e 89 388 1.0
e 89 97 1.0
e 89 32 1.0
e 89 397 1.0
e 90 334 1.0
e 90 326 2.0
e 90 236 1.0
e 90 144 1.0
e 91 317 42.0
e 91 486 15.0
e 91 623 16.0
e 91 458 37.0
e 91 477 24.0
e 91 277 29.0
e 92 186 1.0
e 92 175 1.0
e 92 394 1.0
e 92 224 1.0
e 93 470 1.0
e 93 460 45.0
e 93 46 2.0
e 93 347 1.0
e 94 447 2.0
e 94 260 1.0
e 94 268 23.0
e 94 539 2.0
e 95 411 1.0
e 95 591 1.0
e 95 221 1.0
e 95 269 23.0
e 96 3 2.0
e 96 229 1.0
e 96 76 22.0
e 96 370 1.0
e 97 627 1.0
e 97 504 37.0
e 97 475 1.0
e 97 441 2.0
e 98 316 2.0
e 98 256 2.0
e 98 44 1.0
e 98 476 2.0
e 99 480 27.0
e 99 395 1.0
e 99 383 1.0
e 99 240 1.0
e 100 328 48.0
e 100 362 1.0
e 100 45 1.0
e 100 436 1.0
e 101 276 1.0
e 101 235 1.0
e 101 409 1.0
e 101 261 1.0
e 102 323 1.0
e 102 311 1.0
e 102 540 1.0
e 102 49 2.0
e 103 212 1.0
e 103 225 1.0
e 103 418 2.0
e 103 478 18.0
e 104 133 32.0
e 104 283 18.0
e 104 341 12.0
e 104 612 43.0
e 104 76 15.0
e 104 43 38.0
e 104 91 49.0
e 105 547 2.0
e 105 85 2.0
e 105 468 1.0
e 105 10 1.0
e 106 565 1.0
e 106 13 1.0
e 106 258 1.0
e 106 334 1.0
e 107 359 1.0
e 107 520 1.0
e 107 327 1.0
e 107 39 1.0
e 108 235 1.0
e 108 321 1.0
e 108 391 1.0
e 108 2 43.0
e 109 402 1.0
e 109 136 1.0
e 109 638 33.0
e 109 531 8.0
e 110 305 1.0
e 110 266 1.0
e 110 282 1.0
e 110 286 2.0
e 111 485 2.0
e 111 23 1.0
e 111 196 2.0
e 111 150 1.0
e 112 459 1.0
e 112 2 7.0
e 112 456 1.0
e 112 245 1.0
e 113 36 3.0
e 113 408 1.0
e 113 341 2.0
e 113 127 1.0
e 114 425 1.0
e 114 543 1.0
e 114 417 35.0
e 114 74 1.0
e 115 133 1.0
e 115 434 1.0
e 115 539 1.0
e 115 252 1.0
e 116 483 1.0
e 116 82 1.0
e 116 584 1.0
e 117 358 1.0
e 117 178 1.0
e 117 25 1.0
e 117 363 1.0
e 118 156 46.0
e 118 480 1.0
e 118 504 6.0
e 118 393 1.0
e 119 305 2.0
e 119 116 1.0
e 119 614 1.0
e 119 441 1.0
e 120 304 3.0
e 120 298 40.0
e 120 577 21.0
e 120 245 43.0
e 120 531 14.0
e 120 515 10.0
e 121 248 7.0
e 121 459 49.0
e 121 209 29.0
e 121 419 3.0
e 121 104 12.0
e 121 173 10.0
e 121 477 28.0
e 122 232 24.0
e 122 316 25.0
e 122 590 44.0
e 122 380 4.0
e 122 120 20.0
e 122 121 27.0
e 122 265 27.0
e 123 608 2.0
e 123 455 1.0
e 123 99 2.0
e 123 439 1.0
e 124 32 1.0
e 124 436 1.0
e 124 204 1.0
e 124 154 1.0
e 125 470 1.0
e 125 322 1.0
e 125 270 1.0
e 125 496 1.0
e 126 157 1.0
e 126 615 1.0
e 126 603 1.0
e 126 472 1.0
e 127 71 1.0
e 127 190 6.0
e 127 469 1.0
e 127 19 1.0
e 128 529 1.0
e 128 272 1.0
e 128 448 5.0
e 128 562 2.0
e 129 420 3.0
e 129 1 32.0
e 129 130 39.0
e 129 414 8.0
e 129 134 39.0
e 130 566 2.0
e 130 139 1.0
e 130 549 44.0
e 130 335 31.0
e 130 426 26.0
e 130 26 30.0
e 131 182 2.0
e 131 190 13.0
e 131 460 40.0
e 131 581 1.0
e 132 120 49.0
e 132 128 2.0
e 132 254 2.0
e 132 302 2.0
e 133 47 1.0
e 133 223 1.0
e 133 275 2.0
e 133 23 1.0
e 134 96 19.0
e 134 628 28.0
e 134 409 29.0
e 134 559 10.0
e 134 122 46.0
e 135 631 1.0
e 135 40 1.0
e 135 228 1.0
e 135 312 1.0
e 136 574 1.0
e 136 252 1.0
e 136 68 1.0
e 136 304 2.0
e 137 171 2.0
e 137 387 1.0
e 137 529 1.0
e 137 160 1.0
e 138 480 48.0
e 138 8 1.0
e 138 547 13.0
e 138 179 1.0
e 139 359 1.0
e 139 599 1.0
e 139 119 2.0
e 139 56 1.0
e 140 430 43.0
e 140 493 2.0
e 140 437 3.0
e 140 527 1.0
e 141 17 1.0
e 141 525 1.0
e 141 233 1.0
e 141 564 1.0
e 142 69 1.0
e 142 114 2.0
e 142 292 1.0
e 142 354 1.0
e 143 438 22.0
e 143 0 39.0
e 143 243 24.0
e 143 176 4.0
e 143 426 48.0
e 143 616 7.0
e 143 190 23.0
e 143 16 11.0
e 144 272 1.0
e 144 119 1.0
e 144 8 1.0
e 144 548 1.0
e 145 341 1.0
e 145 285 44.0
e 145 236 1.0
e 145 53 1.0
e 146 179 19.0
e 146 431 14.0
e 146 601 5.0
e 146 334 2.0
e 146 544 47.0
e 146 610 30.0
e 146 237 29.0
e 147 175 1.0
e 147 191 2.0
e 147 455 1.0
e 147 176 1.0
e 148 120 23.0
e 148 257 1.0
e 148 98 2.0
e 148 586 1.0
e 149 13 1.0
e 149 155 38.0
e 149 54 2.0
e 149 542 1.0
e 150 253 1.0
e 150 0 1.0
e 150 414 1.0
e 150 244 1.0
e 151 68 1.0
e 151 337 1.0
e 151 383 1.0
e 151 45 1.0
e 152 49 2.0
e 152 492 2.0
e 152 557 1.0
e 152 272 1.0
e 153 553 2.0
e 153 336 2.0
e 153 363 1.0
e 153 546 2.0
e 154 497 1.0
e 154 77 1.0
e 154 369 7.0
e 155 526 5.0
e 155 123 11.0
e 155 375 9.0
e 155 602 15.0
e 156 523 41.0
e 156 416 39.0
e 156 187 47.0
e 156 59 38.0
e 157 468 1.0
e 157 387 1.0
e 157 436 1.0
e 157 254 1.0
e 158 29 43.0
e 158 127 38.0
e 158 33 1.0
e 158 255 21.0
e 159 115 1.0
e 159 599 1.0
e 159 525 1.0
e 159 152 2.0
e 160 239 1.0
e 160 27 33.0
e 160 156 38.0
e 160 216 1.0
e 161 63 1.0
e 161 178 1.0
e 161 603 2.0
e 161 334 1.0
e 162 611 1.0
e 162 173 44.0
e 162 620 1.0
e 162 536 2.0
e 163 155 19.0
e 163 497 1.0
e 163 593 32.0
e 163 511 1.0
e 164 571 1.0
e 164 18 1.0
e 164 390 1.0
e 164 115 1.0
e 165 531 1.0
e 165 325 1.0
e 165 358 1.0
e 165 254 1.0
e 166 364 1.0
e 166 461 1.0
e 166 85 1.0
e 166 575 1.0
e 167 513 1.0
e 167 492 1.0
e 167 159 1.0
e 167 573 33.0
e 168 241 1.0
e 168 43 37.0
e 168 598 1.0
e 168 135 1.0
e 169 622 1.0
e 169 111 1.0
e 169 437 1.0
e 169 66 1.0
e 170 484 2.0
e 170 119 2.0
e 170 38 1.0
e 170 593 4.0
e 171 455 1.0
e 171 13 1.0
e 171 540 2.0
e 171 300 1.0
e 172 371 1.0
e 172 195 1.0
e 172 497 1.0
e 172 142 1.0
e 173 358 37.0
e 173 528 24.0
e 173 235 14.0
e 173 129 3.0
e 174 519 1.0
e 174 477 11.0
e 174 141 1.0
e 174 358 1.0
e 175 177 2.0
e 175 77 2.0
e 175 241 1.0
e 175 449 1.0
e 176 164 2.0
e 176 333 1.0
e 176 20 1.0
e 176 418 2.0
e 177 580 1.0
e 177 608 3.0
e 177 164 1.0
e 177 76 46.0
e 178 283 2.0
e 178 584 1.0
e 178 445 1.0
e 178 103 1.0
e 179 630 1.0
e 179 589 1.0
e 179 257 1.0
e 179 375 1.0
e 180 612 1.0
e 180 557 1.0
e 180 569 1.0
e 180 104 20.0
e 181 306 2.0
e 181 344 2.0
e 181 497 3.0
e 181 158 40.0
e 182 39 2.0
e 182 526 2.0
e 182 285 17.0
e 182 392 1.0
e 183 529 1.0
e 183 471 1.0
e 183 322 1.0
e 183 399 1.0
e 184 51 37.0
e 184 210 1.0
e 184 591 1.0
e 184 392 2.0
e 185 404 26.0
e 185 442 1.0
e 185 94 1.0
e 185 353 2.0
e 186 49 1.0
e 186 371 2.0
e 186 577 3.0
e 186 589 1.0
e 187 594 1.0
e 187 91 37.0
e 187 31 1.0
e 187 486 2.0
e 188 73 1.0
e 188 185 1.0
e 188 327 1.0
e 188 43 6.0
e 189 225 1.0
e 189 546 2.0
e 189 619 37.0
e 189 365 1.0
e 190 527 2.0
e 190 372 14.0
e 190 487 1.0
e 190 33 5.0
e 191 494 1.0
e 191 509 2.0
e 191 377 1.0
e 191 369 13.0
e 192 565 1.0
e 192 40 1.0
e 192 263 1.0
e 192 526 2.0
e 193 78 2.0
e 193 406 1.0
e 193 189 1.0
e 193 460 19.0
e 194 257 1.0
e 194 404 40.0
e 194 436 1.0
e 194 216 1.0
e 195 439 1.0
e 195 449 1.0
e 195 169 1.0
e 195 150 1.0
e 196 20 1.0
e 196 574 1.0
e 196 455 2.0
e 196 15 2.0
e 197 578 29.0
e 197 236 1.0
e 197 59 1.0
e 197 253 27.0
e 197 129 46.0
e 197 369 25.0
e 198 386 41.0
e 198 258 1.0
e 198 494 1.0
e 198 186 1.0
e 199 219 1.0
e 199 29 2.0
e 199 304 1.0
e 199 494 1.0
e 200 350 2.0
e 200 67 1.0
e 200 405 3.0
e 200 508 2.0
e 201 63 2.0
e 201 103 2.0
e 201 611 1.0
e 201 222 1.0
e 202 173 21.0
e 202 108 1.0
e 202 182 1.0
e 202 552 13.0
e 203 135 1.0
e 203 129 28.0
e 203 166 2.0
e 203 175 1.0
e 204 29 2.0
e 204 120 1.0
e 204 551 1.0
e 204 634 1.0
e 205 96 1.0
e 205 227 1.0
e 205 472 1.0
e 205 46 2.0
e 206 305 1.0
e 206 331 2.0
e 206 62 1.0
e 206 100 1.0
e 207 273 1.0
e 207 104 44.0
e 207 363 2.0
e 207 583 1.0
e 208 156 48.0
e 208 101 1.0
e 208 218 1.0
e 208 582 1.0
e 209 625 1.0
e 209 128 2.0
e 209 435 1.0
e 209 107 1.0
e 210 301 2.0
e 210 272 1.0
e 210 460 2.0
e 210 472 1.0
e 211 106 1.0
e 211 629 1.0
e 211 21 1.0
e 211 253 1.0
e 212 522 2.0
e 212 138 1.0
e 212 466 1.0
e 212 596 2.0
e 213 289 1.0
e 213 54 1.0
e 213 421 2.0
e 213 607 1.0
e 214 147 1.0
e 214 134 27.0
e 214 245 1.0
e 214 298 2.0
e 215 171 2.0
e 215 599 1.0
e 215 568 1.0
e 215 158 22.0
e 216 425 1.0
e 216 236 1.0
e 216 214 1.0
e 216 299 1.0
e 217 340 1.0
e 217 428 1.0
e 217 195 1.0
e 217 634 1.0
e 218 422 1.0
e 218 595 1.0
e 218 236 1.0
e 218 40 2.0
e 219 490 2.0
e 219 339 40.0
e 219 570 1.0
e 219 294 3.0
e 220 287 20.0
e 220 418 23.0
e 220 109 26.0
e 220 268 34.0
e 220 515 35.0
e 220 197 28.0
e 221 274 2.0
e 221 198 1.0
e 221 590 1.0
e 221 200 1.0
e 222 205 1.0
e 222 7 1.0
e 222 465 1.0
e 222 150 1.0
e 223 145 1.0
e 223 334 1.0
e 223 572 24.0
e 223 404 18.0
e 224 372 19.0
e 224 594 2.0
e 224 36 1.0
e 224 172 1.0
e 225 536 1.0
e 225 591 2.0
e 225 398 1.0
e 225 8 1.0
e 226 542 1.0
e 226 604 1.0
e 226 437 1.0
e 226 21 1.0
e 227 619 27.0
e 227 51 44.0
e 227 46 1.0
e 227 119 1.0
e 228 529 2.0
e 228 476 2.0
e 228 547 34.0
e 228 447 1.0
e 229 18 1.0
e 229 114 1.0
e 229 131 1.0
e 229 246 1.0
e 230 605 3.0
e 230 101 1.0
e 230 285 8.0
e 230 113 1.0
e 231 401 42.0
e 231 317 7.0
e 231 221 14.0
e 231 276 22.0
e 232 362 1.0
e 232 199 1.0
e 232 138 1.0
e 232 385 1.0
e 233 162 1.0
e 233 325 1.0
e 233 494 1.0
e 233 463 1.0
e 234 86 1.0
e 234 372 47.0
e 234 450 23.0
e 234 336 2.0
e 235 479 1.0
e 235 582 1.0
e 235 422 1.0
e 235 155 31.0
e 236 165 3.0
e 236 284 1.0
e 236 371 1.0
e 236 333 2.0
e 237 105 10.0
e 237 25 28.0
e 237 576 9.0
e 237 537 4.0
e 237 130 15.0
e 237 134 31.0
e 237 220 23.0
e 238 609 1.0
e 238 476 1.0
e 238 168 2.0
e 238 624 1.0
e 239 616 9.0
e 239 4 1.0
e 239 438 16.0
e 239 635 28.0
e 240 499 1.0
e 240 348 1.0
e 240 283 1.0
e 240 24 1.0
e 241 144 2.0
e 241 495 1.0
e 241 117 1.0
e 241 513 1.0
e 242 267 40.0
e 242 312 1.0
e 242 518 16.0
e 242 161 1.0
e 243 21 32.0
e 243 637 9.0
e 243 391 6.0
e 243 23 38.0
e 243 572 5.0
e 244 378 1.0
e 244 123 2.0
e 244 568 2.0
e 244 522 2.0
e 245 515 18.0
e 245 517 1.0
e 245 349 1.0
e 245 145 1.0
e 246 538 2.0
e 246 634 1.0
e 246 629 1.0
e 246 367 1.0
e 247 26 6.0
e 247 187 1.0
e 247 199 1.0
e 247 358 1.0
e 248 234 1.0
e 248 625 1.0
e 248 337 2.0
e 248 569 2.0
e 249 271 1.0
e 249 245 1.0
e 249 136 1.0
e 249 284 1.0
e 250 414 1.0
e 250 225 1.0
e 250 0 1.0
e 250 619 36.0
e 251 536 1.0
e 251 23 1.0
e 251 336 1.0
e 251 148 1.0
e 252 429 2.0
e 252 563 1.0
e 252 9 1.0
e 252 31 1.0
e 253 583 2.0
e 253 153 1.0
e 253 123 1.0
e 253 26 6.0
e 254 31 1.0
e 254 599 1.0
e 254 195 1.0
e 255 586 2.0
e 255 462 1.0
e 255 412 1.0
e 255 472 1.0
e 256 193 1.0
e 256 330 1.0
e 256 351 1.0
e 256 517 1.0
e 257 368 1.0
e 257 65 1.0
e 257 55 1.0
e 257 606 1.0
e 258 28 1.0
e 258 166 1.0
e 258 549 1.0
e 259 504 21.0
e 259 267 8.0
e 259 579 1.0
e 259 613 2.0
e 260 74 1.0
e 260 186 2.0
e 260 534 1.0
e 260 600 3.0
e 261 431 2.0
e 261 295 48.0
e 261 236 1.0
e 261 8 2.0
e 262 575 1.0
e 262 606 1.0
e 262 438 3.0
e 262 55 2.0
e 263 310 1.0
e 263 579 1.0
e 263 155 12.0
e 263 436 1.0
e 264 20 1.0
e 264 219 2.0
e 264 291 1.0
e 264 107 2.0
e 265 15 1.0
e 265 576 3.0
e 265 595 12.0
e 265 318 2.0
e 266 551 1.0
e 266 289 1.0
e 266 118 1.0
e 266 329 1.0
e 267 630 35.0
e 267 90 37.0
e 267 594 45.0
e 267 307 46.0
e 268 358 10.0
e 268 474 14.0
e 268 4 45.0
e 268 479 42.0
e 269 480 29.0
e 269 637 16.0
e 269 198 27.0
e 269 110 49.0
e 269 477 1.0
e 270 252 1.0
e 270 140 2.0
e 270 306 1.0
e 270 11 1.0
e 271 546 1.0
e 271 400 1.0
e 271 169 1.0
e 271 631 1.0
e 272 169 1.0
e 272 168 2.0
e 272 517 2.0
e 272 269 11.0
e 273 96 1.0
e 273 44 1.0
e 273 353 1.0
e 273 462 2.0
e 274 540 1.0
e 274 500 1.0
e 274 525 1.0
e 274 339 14.0
e 275 433 1.0
e 275 337 1.0
e 275 253 1.0
e 275 342 1.0
e 276 607 3.0
e 276 217 1.0
e 276 342 2.0
e 276 49 1.0
e 277 335 14.0
e 277 579 18.0
e 277 286 10.0
e 277 264 30.0
e 277 635 2.0
e 277 27 23.0
e 278 253 2.0
e 278 533 1.0
e 278 554 10.0
e 278 20 2.0
e 279 147 1.0
e 279 84 1.0
e 279 272 1.0
e 279 15 1.0
e 280 71 1.0
e 280 59 1.0
e 280 175 2.0
e 280 4 1.0
e 281 155 7.0
e 281 312 3.0
e 281 377 1.0
e 281 305 2.0
e 282 136 2.0
e 282 638 23.0
e 282 581 1.0
e 282 169 1.0
e 283 459 2.0
e 283 568 1.0
e 283 204 1.0
e 283 539 1.0
e 284 560 48.0
e 284 467 1.0
e 284 159 2.0
e 284 580 2.0
e 285 588 22.0
e 285 618 10.0
e 285 490 35.0
e 285 265 6.0
e 286 134 29.0
e 286 227 1.0
e 286 295 23.0
e 286 611 1.0
e 287 195 1.0
e 287 241 2.0
e 287 558 1.0
e 287 68 2.0
e 288 529 1.0
e 288 162 3.0
e 288 172 1.0
e 288 27 18.0
e 289 223 1.0
e 289 132 2.0
e 289 168 1.0
e 289 352 1.0
e 290 400 17.0
e 290 379 23.0
e 290 128 45.0
e 290 414 12.0
e 290 231 6.0
e 290 277 31.0
e 290 143 44.0
e 291 250 1.0
e 291 283 1.0
e 291 573 29.0
e 292 513 1.0
e 292 15 1.0
e 292 359 2.0
e 292 589 1.0
e 293 159 1.0
e 293 97 1.0
e 293 363 1.0
e 293 399 1.0
e 294 273 1.0
e 294 448 29.0
e 294 182 1.0
e 294 316 1.0
e 295 562 37.0
e 295 593 41.0
e 295 342 30.0
e 295 62 18.0
e 295 544 25.0
e 295 265 35.0
e 295 146 33.0
e 296 207 1.0
e 296 443 17.0
e 296 45 1.0
e 296 283 1.0
e 297 107 2.0
e 297 567 2.0
e 297 424 2.0
e 297 550 1.0
e 298 626 1.0
e 298 126 1.0
e 298 113 1.0
e 298 369 26.0
e 299 564 1.0
e 299 365 1.0
e 299 603 2.0
e 299 196 1.0
e 300 223 1.0
e 300 141 1.0
e 300 360 1.0
e 300 204 1.0
e 301 394 1.0
e 301 252 2.0
e 301 140 2.0
e 301 117 1.0
e 302 18 2.0
e 302 173 27.0
e 302 366 1.0
e 302 482 1.0
e 303 255 1.0
e 303 413 1.0
e 303 445 1.0
e 303 286 1.0
e 304 358 1.0
e 304 189 1.0
e 304 242 2.0
e 304 75 1.0
e 305 306 2.0
e 305 535 1.0
e 305 387 1.0
e 305 559 1.0
e 306 558 1.0
e 306 238 1.0
e 306 273 1.0
e 306 600 1.0
e 307 439 1.0
e 307 299 1.0
e 307 408 1.0
e 307 462 1.0
e 308 381 4.0
e 308 242 40.0
e 308 628 32.0
e 308 487 35.0
e 308 237 9.0
e 308 243 7.0
e 309 396 1.0
e 309 71 1.0
e 309 574 2.0
e 309 303 2.0
e 310 284 2.0
e 310 407 1.0
e 310 148 1.0
e 310 330 1.0
e 311 11 1.0
e 311 498 1.0
e 311 301 1.0
e 311 318 1.0
e 312 0 1.0
e 312 393 2.0
e 312 116 1.0
e 312 451 15.0
e 313 393 1.0
e 313 43 8.0
e 313 398 2.0
e 313 148 2.0
e 314 42 1.0
e 314 623 1.0
e 314 625 1.0
e 314 590 1.0
e 315 153 23.0
e 315 456 4.0
e 315 152 48.0
e 315 33 40.0
e 315 443 19.0
e 315 332 14.0
e 315 601 43.0
e 316 293 1.0
e 316 185 1.0
e 316 17 1.0
e 316 175 1.0
e 317 595 1.0
e 317 180 1.0
e 317 206 1.0
e 317 205 1.0
e 318 476 1.0
e 318 39 1.0
e 318 251 2.0
e 318 78 3.0
e 319 185 1.0
e 319 344 1.0
e 319 37 1.0
e 319 421 2.0
e 320 151 1.0
e 320 523 1.0
e 320 599 1.0
e 320 373 1.0
e 321 408 1.0
e 321 314 1.0
e 321 230 2.0
e 321 189 1.0
e 322 570 2.0
e 322 400 1.0
e 322 460 39.0
e 322 529 1.0
e 323 395 1.0
e 323 51 35.0
e 323 249 1.0
e 323 229 1.0
e 324 234 2.0
e 324 115 1.0
e 324 624 2.0
e 324 612 1.0
e 325 272 1.0
e 325 544 41.0
e 325 121 34.0
e 325 162 1.0
e 326 503 1.0
e 326 92 1.0
e 326 67 7.0
e 327 71 1.0
e 327 222 1.0
e 327 39 1.0
e 327 456 2.0
e 328 62 39.0
e 328 66 27.0
e 328 498 19.0
e 328 234 13.0
e 329 516 1.0
e 329 372 19.0
e 329 623 2.0
e 329 408 2.0
e 330 322 2.0
e 330 202 1.0
e 330 46 2.0
e 330 469 1.0
e 331 308 23.0
e 331 445 1.0
e 331 34 2.0
e 331 510 1.0
e 332 635 11.0
e 332 122 34.0
e 332 323 43.0
e 332 250 21.0
e 333 224 2.0
e 333 634 2.0
e 333 470 2.0
e 333 267 24.0
e 334 313 1.0
e 334 285 4.0
e 334 220 23.0
e 334 541 1.0
e 335 88 1.0
e 335 480 4.0
e 335 182 1.0
e 335 540 1.0
e 336 227 1.0
e 336 557 1.0
e 336 475 2.0
e 336 347 1.0
e 337 131 1.0
e 337 207 1.0
e 337 56 1.0
e 337 463 1.0
e 338 517 3.0
e 338 439 1.0
e 338 113 1.0
e 338 140 2.0
e 339 315 20.0
e 339 198 20.0
e 339 420 41.0
e 339 514 11.0
e 340 24 1.0
e 340 218 1.0
e 340 17 1.0
e 340 630 1.0
e 341 306 1.0
e 341 434 1.0
e 341 189 3.0
e 341 73 1.0
e 342 136 1.0
e 342 332 12.0
e 342 123 1.0
e 342 270 1.0
e 343 192 2.0
e 343 260 1.0
e 343 116 1.0
e 343 51 27.0
e 344 227 1.0
e 344 531 2.0
e 344 380 1.0
e 344 591 2.0
e 345 226 1.0
e 345 486 2.0
e 345 280 1.0
e 345 614 1.0
e 346 602 2.0
e 346 111 1.0
e 346 303 2.0
e 346 71 1.0
e 347 628 2.0
e 347 417 43.0
e 347 203 1.0
e 347 367 2.0
e 348 108 1.0
e 348 62 1.0
e 348 410 1.0
e 348 103 2.0
e 349 82 2.0
e 349 355 15.0
e 349 628 1.0
e 349 454 1.0
e 350 159 1.0
e 350 135 1.0
e 350 194 1.0
e 350 210 2.0
e 351 67 45.0
e 351 467 1.0
e 351 581 1.0
e 351 560 7.0
e 352 328 39.0
e 352 629 1.0
e 352 615 1.0
e 352 487 1.0
e 353 95 1.0
e 353 72 1.0
e 353 158 43.0
e 353 244 1.0
e 354 87 1.0
e 354 617 1.0
e 354 47 1.0
e 354 172 1.0
e 355 434 45.0
e 355 194 21.0
e 355 255 34.0
e 355 539 29.0
e 356 481 1.0
e 356 100 1.0
e 356 432 1.0
e 356 39 1.0
e 357 37 1.0
e 357 68 1.0
e 357 329 1.0
e 357 19 1.0
e 358 5 1.0
e 358 414 1.0
e 358 524 1.0
e 358 429 1.0
e 359 9 1.0
e 359 593 13.0
e 359 204 1.0
e 359 278 1.0
e 360 204 1.0
e 360 162 2.0
e 360 410 1.0
e 360 73 1.0
e 361 313 2.0
e 361 228 1.0
e 361 630 1.0
e 361 534 1.0
e 362 276 2.0
e 362 334 1.0
e 362 519 2.0
e 362 163 1.0
e 363 335 1.0
e 363 147 2.0
e 363 360 1.0
e 363 406 1.0
e 364 203 1.0
e 364 265 7.0
e 364 69 3.0
e 364 321 1.0
e 365 591 1.0
e 365 83 2.0
e 365 194 1.0
e 365 259 1.0
e 366 381 1.0
e 366 598 1.0
e 366 306 1.0
e 366 254 2.0
e 367 32 2.0
e 367 245 1.0
e 367 462 1.0
e 367 629 1.0
e 368 313 1.0
e 368 192 1.0
e 368 499 1.0
e 368 28 1.0
e 369 51 1.0
e 369 336 30.0
e 369 98 40.0
e 369 241 24.0
e 370 36 1.0
e 370 599 1.0
e 370 351 1.0
e 370 24 1.0
e 371 540 2.0
e 371 347 2.0
e 371 564 1.0
e 371 112 1.0
e 372 501 47.0
e 372 171 11.0
e 372 460 32.0
e 372 394 11.0
e 372 267 47.0
e 373 579 1.0
e 373 236 2.0
e 373 67 8.0
e 373 38 1.0
e 374 54 2.0
e 374 611 1.0
e 374 78 2.0
e 374 533 1.0
e 375 301 1.0
e 375 6 2.0
e 375 445 1.0
e 375 327 1.0
e 376 220 34.0
e 376 524 2.0
e 376 329 3.0
e 376 487 1.0
e 377 136 3.0
e 377 200 1.0
e 377 13 1.0
e 377 289 1.0
e 378 503 1.0
e 378 78 1.0
e 378 67 3.0
e 378 198 1.0
e 379 392 1.0
e 379 131 1.0
e 379 188 1.0
e 379 418 1.0
e 380 378 2.0
e 380 532 1.0
e 380 555 2.0
e 380 374 2.0
e 381 19 1.0
e 381 377 3.0
e 381 333 2.0
e 381 4 1.0
e 382 471 1.0
e 382 103 1.0
e 382 469 1.0
e 382 630 1.0
e 383 244 2.0
e 383 333 2.0
e 383 350 1.0
e 383 496 2.0
e 384 577 1.0
e 384 287 1.0
e 384 312 1.0
e 384 20 1.0
e 385 97 1.0
e 385 258 1.0
e 385 425 1.0
e 385 181 2.0
e 386 177 4.0
e 386 538 45.0
e 386 393 49.0
e 386 346 3.0
e 386 290 31.0
e 386 601 1.0
e 387 310 1.0
e 387 342 1.0
e 387 170 2.0
e 387 256 1.0
e 388 190 25.0
e 388 404 20.0
e 388 252 1.0
e 388 221 2.0
e 389 426 7.0
e 389 246 1.0
e 389 38 3.0
e 389 193 1.0
e 390 422 2.0
e 390 588 2.0
e 390 192 1.0
e 390 454 2.0
e 391 189 2.0
e 391 613 1.0
e 391 433 1.0
e 391 378 2.0
e 392 123 1.0
e 392 209 1.0
e 392 528 1.0
e 392 152 2.0
e 393 239 1.0
e 393 164 1.0
e 393 539 2.0
e 393 33 1.0
e 394 47 1.0
e 394 460 23.0
e 394 522 1.0
e 394 141 1.0
e 395 596 2.0
e 395 243 12.0
e 395 234 1.0
e 395 324 2.0
e 396 48 1.0
e 396 42 1.0
e 396 556 1.0
e 396 67 18.0
e 397 284 1.0
e 397 361 1.0
e 397 115 1.0
e 397 44 1.0
e 398 343 2.0
e 398 74 1.0
e 398 569 1.0
e 398 146 14.0
e 399 482 2.0
e 399 552 37.0
e 399 96 2.0
e 399 353 1.0
e 400 282 1.0
e 400 155 11.0
e 400 632 3.0
e 400 458 1.0
e 401 151 1.0
e 401 388 1.0
e 401 92 2.0
e 401 545 21.0
e 402 107 1.0
e 402 512 1.0
e 402 457 1.0
e 402 530 1.0
e 403 373 1.0
e 403 138 1.0
e 403 399 1.0
e 403 366 1.0
e 404 74 49.0
e 404 32 29.0
e 404 269 22.0
e 404 348 10.0
e 404 545 7.0
e 405 24 1.0
e 405 545 25.0
e 405 487 1.0
e 405 16 2.0
e 406 323 1.0
e 406 198 1.0
e 406 539 1.0
e 406 144 1.0
e 407 566 1.0
e 407 61 1.0
e 407 393 1.0
e 407 202 1.0
e 408 299 1.0
e 408 273 1.0
e 408 414 1.0
e 409 424 1.0
e 409 268 45.0
e 409 624 1.0
e 409 96 1.0
e 410 160 1.0
e 410 244 2.0
e 410 322 1.0
e 410 281 1.0
e 411 505 3.0
e 411 224 1.0
e 411 598 1.0
e 411 477 41.0
e 412 38 1.0
e 412 199 1.0
e 412 467 1.0
e 412 438 17.0
e 413 155 5.0
e 413 16 11.0
e 413 172 1.0
e 413 424 1.0
e 414 537 1.0
e 414 196 1.0
e 414 124 1.0
e 414 637 1.0
e 415 585 31.0
e 415 491 17.0
e 415 183 2.0
e 415 22 30.0
e 415 268 11.0
e 415 552 29.0
e 415 269 36.0
e 416 335 1.0
e 416 255 1.0
e 416 197 37.0
e 416 427 1.0
e 417 75 43.0
e 417 274 15.0
e 417 453 18.0
e 417 470 9.0
e 417 572 17.0
e 418 488 1.0
e 418 334 1.0
e 418 454 2.0
e 418 484 1.0
e 419 453 2.0
e 419 495 2.0
e 419 529 1.0
e 419 394 2.0
e 420 220 19.0
e 420 541 41.0
e 420 218 39.0
e 420 282 28.0
e 420 386 34.0
e 420 332 29.0
e 421 38 1.0
e 421 130 44.0
e 421 33 2.0
e 421 488 1.0
e 422 214 2.0
e 422 355 5.0
e 422 30 1.0
e 422 119 1.0
e 423 469 1.0
e 423 65 2.0
e 423 535 1.0
e 423 40 1.0
e 424 405 1.0
e 424 627 1.0
e 424 423 1.0
e 424 408 1.0
e 425 459 1.0
e 425 626 1.0
e 425 402 1.0
e 425 387 1.0
e 426 66 38.0
e 426 355 18.0
e 426 11 3.0
e 426 317 8.0
e 426 295 28.0
e 427 462 1.0
e 427 161 1.0
e 427 629 1.0
e 427 428 1.0
e 428 99 1.0
e 428 283 1.0
e 428 181 2.0
e 428 177 1.0
e 429 412 1.0
e 429 110 1.0
e 429 592 1.0
e 429 362 2.0
e 430 413 46.0
e 430 160 26.0
e 430 491 17.0
e 430 90 25.0
e 430 560 32.0
e 431 80 3.0
e 431 515 18.0
e 431 313 2.0
e 431 66 1.0
e 432 243 38.0
e 432 255 1.0
e 432 70 1.0
e 432 622 1.0
e 433 518 9.0
e 433 197 31.0
e 433 221 1.0
e 433 585 2.0
e 434 210 1.0
e 434 359 1.0
e 434 201 1.0
e 434 313 1.0
e 435 621 1.0
e 435 587 1.0
e 435 539 1.0
e 435 387 2.0
e 436 177 1.0
e 436 533 1.0
e 436 268 27.0
e 436 339 36.0
e 437 167 2.0
e 437 264 1.0
e 437 376 1.0
e 437 367 1.0
e 438 305 2.0
e 438 443 2.0
e 438 259 6.0
e 438 9 6.0
e 439 504 29.0
e 439 528 1.0
e 439 306 1.0
e 439 121 5.0
e 440 112 2.0
e 440 534 2.0
e 440 567 1.0
e 440 166 1.0
e 441 332 17.0
e 441 632 1.0
e 441 286 1.0
e 441 177 1.0
e 442 285 7.0
e 442 529 1.0
e 442 271 2.0
e 442 358 1.0
e 443 600 26.0
e 443 158 46.0
e 443 435 11.0
e 443 52 33.0
e 444 359 1.0
e 444 566 1.0
e 444 354 2.0
e 444 91 11.0
e 445 246 2.0
e 445 21 1.0
e 445 200 1.0
e 445 550 1.0
e 446 183 3.0
e 446 497 1.0
e 446 592 1.0
e 446 107 1.0
e 447 182 2.0
e 447 32 1.0
e 447 525 1.0
e 447 345 1.0
e 448 92 22.0
e 448 34 43.0
e 448 38 16.0
e 448 571 22.0
e 448 308 7.0
e 448 315 19.0
e 448 339 10.0
e 449 26 18.0
e 449 430 15.0
e 449 284 1.0
e 449 637 1.0
e 450 316 8.0
e 450 99 7.0
e 450 593 47.0
e 450 540 40.0
e 450 420 30.0
e 451 76 19.0
e 451 262 21.0
e 451 480 42.0
e 451 288 45.0
e 451 515 49.0
e 451 355 31.0
e 451 572 22.0
e 451 369 18.0
e 452 102 2.0
e 452 360 1.0
e 452 256 1.0
e 452 488 1.0
e 453 520 1.0
e 453 524 2.0
e 453 588 1.0
e 453 96 3.0
e 454 356 1.0
e 454 200 2.0
e 454 83 2.0
e 454 318 1.0
e 455 51 33.0
e 455 597 1.0
e 455 393 1.0
e 455 76 34.0
e 456 25 2.0
e 456 124 1.0
e 456 77 2.0
e 456 538 1.0
e 457 324 1.0
e 457 455 1.0
e 457 629 1.0
e 457 603 1.0
e 458 33 1.0
e 458 262 1.0
e 458 229 1.0
e 458 554 22.0
e 459 130 47.0
e 459 628 1.0
e 459 411 2.0
e 460 125 40.0
e 460 332 26.0
e 460 287 47.0
e 460 439 21.0
e 461 504 37.0
e 461 39 1.0
e 461 291 1.0
e 461 172 1.0
e 462 381 2.0
e 462 302 2.0
e 462 406 1.0
e 462 214 1.0
e 463 44 1.0
e 463 62 1.0
e 463 416 2.0
e 463 118 2.0
e 464 413 1.0
e 464 596 1.0
e 464 30 2.0
e 464 333 1.0
e 465 180 1.0
e 465 594 1.0
e 465 398 1.0
e 465 315 26.0
e 466 534 3.0
e 466 413 1.0
e 466 47 1.0
e 466 232 1.0
e 467 579 3.0
e 467 122 39.0
e 467 493 2.0
e 467 574 2.0
e 468 430 1.0
e 468 186 1.0
e 468 450 1.0
e 468 385 1.0
e 469 71 1.0
e 469 227 1.0
e 469 265 34.0
e 469 140 1.0
e 470 383 1.0
e 470 596 1.0
e 470 171 2.0
e 470 618 1.0
e 471 590 1.0
e 471 539 1.0
e 471 158 41.0
e 471 93 3.0
e 472 47 1.0
e 472 157 1.0
e 472 511 1.0
e 472 45 1.0
e 473 445 1.0
e 473 171 1.0
e 473 194 1.0
e 473 159 1.0
e 474 96 1.0
e 474 581 1.0
e 474 143 4.0
e 474 270 1.0
e 475 6 1.0
e 475 596 2.0
e 475 158 48.0
e 475 501 1.0
e 476 421 2.0
e 476 637 1.0
e 476 286 1.0
e 476 556 1.0
e 477 634 32.0
e 477 102 35.0
e 477 532 25.0
e 477 580 47.0
e 478 429 13.0
e 478 175 10.0
e 478 342 37.0
e 478 578 17.0
e 478 372 9.0
e 478 404 10.0
e 479 584 2.0
e 479 406 1.0
e 479 453 1.0
e 479 64 1.0
e 480 601 6.0
e 480 509 31.0
e 480 633 45.0
e 480 93 19.0
e 481 51 18.0
e 481 110 2.0
e 481 256 2.0
e 481 168 1.0
e 482 459 1.0
e 482 107 1.0
e 482 151 1.0
e 482 424 1.0
e 483 41 1.0
e 483 493 1.0
e 483 636 1.0
e 483 139 2.0
e 484 353 1.0
e 484 595 2.0
e 484 571 2.0
e 484 40 1.0
e 485 305 1.0
e 485 231 32.0
e 485 34 1.0
e 485 52 2.0
e 486 263 2.0
e 486 147 1.0
e 486 588 2.0
e 486 296 2.0
e 487 78 1.0
e 487 511 1.0
e 487 270 1.0
e 487 161 1.0
e 488 307 1.0
e 488 156 14.0
e 488 284 1.0
e 488 437 3.0
e 489 594 1.0
e 489 622 1.0
e 489 562 2.0
e 489 124 1.0
e 490 42 2.0
e 490 328 33.0
e 490 351 1.0
e 490 188 2.0
e 491 379 2.0
e 491 183 1.0
e 491 78 1.0
e 491 394 1.0
e 492 508 1.0
e 492 588 1.0
e 492 0 1.0
e 492 473 1.0
e 493 12 1.0
e 493 636 1.0
e 493 236 1.0
e 493 389 1.0
e 494 382 1.0
e 494 32 1.0
e 494 74 1.0
e 494 519 1.0
e 495 459 1.0
e 495 93 1.0
e 496 426 11.0
e 496 558 3.0
e 496 217 3.0
e 496 493 1.0
e 497 338 1.0
e 497 16 43.0
e 497 205 1.0
e 497 328 37.0
e 498 100 2.0
e 498 582 1.0
e 498 3 1.0
e 498 505 2.0
e 499 518 3.0
e 499 48 1.0
e 499 347 2.0
e 499 219 2.0
e 500 409 1.0
e 500 568 1.0
e 500 103 1.0
e 500 214 2.0
e 501 487 2.0
e 501 353 2.0
e 501 41 1.0
e 501 364 1.0
e 502 173 3.0
e 502 358 1.0
e 502 598 1.0
e 502 399 2.0
e 503 383 1.0
e 503 527 1.0
e 503 50 1.0
e 503 217 1.0
e 504 618 24.0
e 504 277 19.0
e 504 246 44.0
e 504 212 31.0
e 505 633 1.0
e 505 75 1.0
e 505 585 1.0
e 505 508 1.0
e 506 92 1.0
e 506 221 3.0
e 506 309 2.0
e 506 105 1.0
e 507 345 1.0
e 507 4 1.0
e 507 262 1.0
e 507 546 1.0
e 508 337 1.0
e 508 471 2.0
e 508 323 1.0
e 508 455 1.0
e 509 365 2.0
e 509 198 1.0
e 509 465 1.0
e 509 337 1.0
e 510 598 1.0
e 510 492 1.0
e 510 21 1.0
e 510 307 2.0
e 511 167 1.0
e 511 390 1.0
e 511 275 1.0
e 511 352 1.0
e 512 88 1.0
e 512 99 1.0
e 512 194 1.0
e 512 584 1.0
e 513 382 1.0
e 513 316 1.0
e 513 393 1.0
e 513 52 2.0
e 514 152 1.0
e 514 72 1.0
e 514 222 1.0
e 514 545 39.0
e 515 163 41.0
e 515 560 21.0
e 515 362 43.0
e 516 50 1.0
e 516 10 1.0
e 516 136 1.0
e 516 625 1.0
e 517 485 1.0
e 517 427 2.0
e 517 368 1.0
e 517 569 2.0
e 518 469 30.0
e 518 118 13.0
e 518 273 39.0
e 518 5 6.0
e 519 288 1.0
e 519 226 1.0
e 519 292 1.0
e 519 476 1.0
e 520 397 1.0
e 520 350 1.0
e 520 35 1.0
e 520 470 1.0
e 521 4 21.0
e 521 108 38.0
e 521 154 35.0
e 521 97 23.0
e 521 415 35.0
e 521 417 42.0
e 521 601 5.0
e 522 615 1.0
e 522 46 1.0
e 522 449 1.0
e 522 488 1.0
e 523 510 1.0
e 523 279 1.0
e 523 314 1.0
e 523 460 4.0
e 524 352 1.0
e 524 491 2.0
e 524 183 3.0
e 524 618 1.0
e 525 73 1.0
e 525 238 1.0
e 525 14 1.0
e 525 487 1.0
e 526 469 1.0
e 526 602 1.0
e 526 266 2.0
e 526 46 1.0
e 527 123 2.0
e 527 536 1.0
e 527 92 1.0
e 527 162 1.0
e 528 276 1.0
e 528 247 1.0
e 528 415 21.0
e 528 162 1.0
e 529 17 1.0
e 529 65 1.0
e 529 24 1.0
e 529 380 3.0
e 530 624 1.0
e 530 478 34.0
e 530 112 1.0
e 530 58 1.0
e 531 174 22.0
e 531 614 8.0
e 531 610 45.0
e 531 244 35.0
e 532 136 1.0
e 532 190 8.0
e 532 125 1.0
e 532 619 33.0
e 533 325 1.0
e 533 375 2.0
e 533 439 1.0
e 533 96 1.0
e 534 477 22.0
e 534 507 2.0
e 534 374 1.0
e 534 13 1.0
e 535 208 1.0
e 535 146 11.0
e 535 494 1.0
e 535 43 39.0
e 536 381 1.0
e 536 365 1.0
e 536 539 2.0
e 536 629 1.0
e 537 262 1.0
e 537 38 2.0
e 537 332 35.0
e 537 76 15.0
e 538 529 1.0
e 538 408 1.0
e 538 551 1.0
e 538 87 1.0
e 539 402 1.0
e 539 310 1.0
e 539 7 1.0
e 539 472 1.0
e 540 345 2.0
e 540 360 2.0
e 540 0 2.0
e 540 145 2.0
e 541 96 1.0
e 541 65 1.0
e 541 249 1.0
e 541 455 1.0
e 542 132 2.0
e 542 29 1.0
e 542 10 1.0
e 542 12 1.0
e 543 279 1.0
e 543 187 1.0
e 543 388 1.0
e 543 30 1.0
e 544 136 33.0
e 544 589 44.0
e 544 462 41.0
e 544 54 6.0
e 545 463 44.0
e 545 166 10.0
e 545 24 13.0
e 545 475 16.0
e 546 509 2.0
e 546 581 2.0
e 546 150 1.0
e 546 386 3.0
e 547 378 28.0
e 547 623 25.0
e 547 26 20.0
e 547 236 14.0
e 548 604 1.0
e 548 552 10.0
e 548 384 1.0
e 548 191 1.0
e 549 79 1.0
e 549 527 1.0
e 549 396 2.0
e 549 292 2.0
e 550 467 1.0
e 550 409 1.0
e 550 10 1.0
e 550 600 1.0
e 551 75 1.0
e 551 395 2.0
e 551 317 1.0
e 551 399 2.0
e 552 231 36.0
e 552 478 47.0
e 552 357 9.0
e 552 593 32.0
e 553 363 1.0
e 553 180 1.0
e 553 254 1.0
e 553 458 1.0
e 554 438 25.0
e 554 334 1.0
e 554 625 14.0
e 554 565 34.0
e 554 515 17.0
e 554 426 1.0
e 555 163 1.0
e 555 312 1.0
e 555 187 1.0
e 555 444 1.0
e 556 606 1.0
e 556 185 2.0
e 556 16 44.0
e 556 535 2.0
e 557 583 1.0
e 557 450 34.0
e 557 138 1.0
e 557 374 1.0
e 558 224 1.0
e 558 424 1.0
e 558 524 1.0
e 558 333 1.0
e 559 266 1.0
e 559 249 1.0
e 559 632 1.0
e 559 172 2.0
e 560 297 28.0
e 560 64 39.0
e 560 13 46.0
e 560 390 33.0
e 561 200 1.0
e 561 71 1.0
e 561 209 1.0
e 561 438 49.0
e 562 145 1.0
e 562 118 1.0
e 562 537 3.0
e 562 242 2.0
e 563 358 1.0
e 563 155 10.0
e 563 349 1.0
e 563 296 2.0
e 564 239 1.0
e 564 230 2.0
e 564 435 2.0
e 564 613 1.0
e 565 547 15.0
e 565 342 1.0
e 565 533 1.0
e 565 118 1.0
e 566 149 1.0
e 566 341 1.0
e 566 300 1.0
e 566 495 1.0
e 567 489 1.0
e 567 617 1.0
e 567 85 1.0
e 567 113 1.0
e 568 210 2.0
e 568 254 1.0
e 568 113 1.0
e 568 518 9.0
e 569 14 1.0
e 569 351 1.0
e 569 284 2.0
e 569 195 1.0
e 570 91 12.0
e 570 113 1.0
e 570 513 2.0
e 570 152 1.0
e 571 225 1.0
e 571 241 1.0
e 571 157 1.0
e 571 376 1.0
e 572 196 10.0
e 572 78 42.0
e 572 155 39.0
e 572 547 14.0
e 573 521 33.0
e 573 470 9.0
e 573 69 42.0
e 573 147 46.0
e 574 27 39.0
e 574 549 2.0
e 574 22 2.0
e 574 566 1.0
e 575 137 1.0
e 575 495 1.0
e 575 356 1.0
e 575 80 1.0
e 576 101 1.0
e 576 527 2.0
e 576 75 1.0
e 576 309 1.0
e 577 373 2.0
e 577 630 1.0
e 577 294 2.0
e 577 285 18.0
e 578 73 2.0
e 578 267 29.0
e 578 604 1.0
e 578 545 1.0
e 579 74 1.0
e 579 305 1.0
e 579 493 1.0
e 579 309 2.0
e 580 559 1.0
e 580 521 35.0
e 580 462 1.0
e 580 554 38.0
e 581 501 1.0
e 581 626 1.0
e 581 454 1.0
e 581 331 2.0
e 582 100 1.0
e 582 324 2.0
e 583 573 1.0
e 583 358 1.0
e 583 4 2.0
e 583 584 1.0
e 584 209 2.0
e 584 390 1.0
e 584 625 1.0
e 584 436 1.0
e 585 551 2.0
e 585 637 1.0
e 585 548 2.0
e 585 325 1.0
e 586 112 1.0
e 586 137 1.0
e 586 217 1.0
e 586 181 2.0
e 587 514 1.0
e 587 575 1.0
e 587 95 2.0
e 587 272 1.0
e 588 512 1.0
e 588 620 2.0
e 588 334 1.0
e 588 81 2.0
e 589 52 1.0
e 589 633 1.0
e 589 280 1.0
e 590 359 1.0
e 590 339 36.0
e 590 504 6.0
e 590 440 1.0
e 591 181 1.0
e 591 70 1.0
e 591 545 46.0
e 591 203 1.0
e 592 40 2.0
e 592 393 1.0
e 592 133 1.0
e 592 247 1.0
e 593 376 39.0
e 593 57 32.0
e 593 517 36.0
e 593 186 36.0
e 594 132 2.0
e 594 418 2.0
e 594 536 1.0
e 594 310 1.0
e 595 206 3.0
e 595 263 2.0
e 595 107 2.0
e 595 260 1.0
e 596 550 2.0
e 596 78 2.0
e 596 269 7.0
e 596 59 1.0
e 597 457 1.0
e 597 8 1.0
e 597 147 1.0
e 597 86 1.0
e 598 447 1.0
e 598 562 1.0
e 598 159 1.0
e 598 108 1.0
e 599 70 1.0
e 599 309 1.0
e 599 401 1.0
e 599 300 1.0
e 600 294 1.0
e 600 139 1.0
e 600 513 1.0
e 600 411 1.0
e 601 429 33.0
e 601 273 2.0
e 601 458 23.0
e 601 63 49.0
e 602 3 1.0
e 602 437 1.0
e 602 297 1.0
e 602 382 1.0
e 603 154 1.0
e 603 38 1.0
e 603 236 2.0
e 603 285 32.0
e 604 248 2.0
e 604 253 1.0
e 604 619 46.0
e 604 312 1.0
e 605 563 1.0
e 605 6 2.0
e 605 414 1.0
e 605 420 28.0
e 606 154 1.0
e 606 32 1.0
e 606 561 1.0
e 606 389 2.0
e 607 608 1.0
e 607 1 2.0
e 607 63 1.0
e 607 294 3.0
e 608 358 2.0
e 608 158 32.0
e 608 45 1.0
e 608 441 1.0
e 609 265 8.0
e 609 440 1.0
e 609 348 1.0
e 609 351 1.0
e 610 204 36.0
e 610 267 42.0
e 610 538 19.0
e 610 393 18.0
e 610 430 28.0
e 610 448 15.0
e 610 450 38.0
e 611 383 1.0
e 611 328 34.0
e 611 202 1.0
e 611 607 1.0
e 612 79 1.0
e 612 75 1.0
e 612 263 2.0
e 613 506 1.0
e 613 162 2.0
e 613 443 42.0
e 613 490 2.0
e 614 58 1.0
e 614 237 18.0
e 614 560 46.0
e 614 208 1.0
e 615 573 21.0
e 615 16 42.0
e 615 142 1.0
e 615 519 1.0
e 616 568 25.0
e 616 589 15.0
e 616 592 45.0
e 616 65 24.0
e 616 521 10.0
e 616 451 12.0
e 616 478 7.0
e 617 3 1.0
e 617 41 1.0
e 617 319 1.0
e 617 406 1.0
e 618 370 1.0
e 618 532 1.0
e 618 139 1.0
e 618 170 1.0
e 619 417 46.0
e 619 578 42.0
e 619 541 11.0
e 619 254 2.0
e 620 345 1.0
e 620 14 1.0
e 620 10 1.0
e 620 462 1.0
e 621 499 2.0
e 621 232 1.0
e 621 63 2.0
e 621 568 1.0
e 622 225 1.0
e 622 553 1.0
e 622 472 1.0
e 622 166 3.0
e 623 550 1.0
e 623 496 2.0
e 623 235 1.0
e 623 468 1.0
e 624 228 1.0
e 624 345 1.0
e 624 465 2.0
e 624 323 1.0
e 625 298 1.0
e 625 508 1.0
e 625 231 48.0
e 625 112 1.0
e 626 300 1.0
e 626 358 1.0
e 626 155 22.0
e 626 443 37.0
e 627 447 1.0
e 627 190 29.0
e 627 221 1.0
e 627 223 2.0
e 628 506 1.0
e 628 585 1.0
e 628 209 1.0
e 628 287 1.0
e 629 102 1.0
e 629 101 1.0
e 629 345 1.0
e 629 466 1.0
e 630 504 4.0
e 630 441 1.0
e 630 467 1.0
e 630 92 1.0
e 631 556 1.0
e 631 516 1.0
e 631 528 1.0
e 631 250 1.0
e 632 29 2.0
e 632 573 47.0
e 632 409 1.0
e 632 565 1.0
e 633 481 2.0
e 633 376 1.0
e 633 555 1.0
e 633 525 2.0
e 634 397 1.0
e 634 211 3.0
e 634 137 2.0
e 634 493 2.0
e 635 553 13.0
e 635 316 37.0
e 635 459 26.0
e 635 236 3.0
e 635 554 35.0
e 635 610 29.0
e 636 89 1.0
e 636 413 1.0
e 636 363 1.0
e 636 307 1.0
e 637 498 1.0
e 637 423 1.0
e 637 193 1.0
e 637 278 1.0
e 638 252 14.0
e 638 432 32.0
e 638 69 8.0
e 638 487 29.0
e 638 616 12.0
e 638 635 36.0
e 638 2 32.0
e 639 350 1.0
e 639 152 2.0
e 639 479 1.0
e 639 161 1.0
